p cnf 981 1209
c ind 705 710 711 712 713 714 716 717 718 719 0
c ind 720 721 722 723 724 725 726 727 728 729 0
c ind 730 731 732 733 734 735 740 741 747 748 0
c ind 749 750 751 752 753 754 755 756 757 758 0
c ind 759 760 761 770 771 772 773 776 777 778 0
c ind 779 780 781 784 785 786 787 788 789 798 0
c ind 799 800 801 804 805 806 807 808 809 812 0
c ind 813 814 815 816 817 818 819 820 821 822 0
c ind 824 825 826 827 828 829 830 831 832 833 0
c ind 834 835 836 837 838 839 840 841 842 843 0
c ind 844 846 848 849 850 851 852 853 854 855 0
c ind 856 857 861 862 863 864 865 867 869 870 0
c ind 871 872 873 874 875 876 877 878 884 885 0
c ind 896 897 898 899 901 902 904 906 910 915 0
c ind 916 917 918 919 920 921 922 923 924 925 0
c ind 926 927 928 929 930 932 934 935 937 939 0
c ind 940 941 943 972 962 966 952 971 957 979 0
c ind 961 948 951 965 956 970 978 706 707 947 0
c ind 944 974 960 950 964 942 955 969 977 946 0
c ind 959 715 949 963 973 954 968 976 958 880 0
c ind 883 945 953 967 975 881 882 823 938 709 0
c ind 708 936 931 933 911 912 913 914 908 909 0
c ind 903 905 900 907 889 890 892 893 894 895 0
c ind 886 887 888 891 866 868 860 858 859 879 0
c ind 845 847 704 736 739 737 738 744 746 802 0
c ind 743 745 803 797 810 811 742 793 775 782 0
c ind 783 790 791 792 794 795 769 796 762 765 0
c ind 774 763 764 766 767 768 1 0
c ret 588 589 590 591 592 593 594 595 596 597 0
c ret 598 599 600 601 602 603 604 605 606 607 0
c ret 608 609 610 611 612 613 614 615 616 617 0
c ret 618 619 620 621 622 623 624 625 626 627 0
c ret 628 629 630 631 632 633 634 635 636 637 0
c ret 638 639 640 641 642 643 644 645 646 647 0
c ret 648 649 650 651 652 653 654 655 656 657 0
c ret 658 659 660 661 662 663 664 665 666 667 0
c ret 668 283 669 289 290 670 291 671 292 672 0
c ret 293 294 295 296 297 298 299 300 301 302 0
c ret 303 304 305 306 307 673 674 308 309 675 0
c ret 676 310 311 312 313 314 677 315 316 317 0
c ret 318 319 320 678 321 322 679 323 324 325 0
c ret 680 284 681 326 327 328 329 330 331 332 0
c ret 682 333 334 335 683 684 336 337 338 339 0
c ret 685 686 340 341 342 343 344 345 346 347 0
c ret 348 349 350 351 352 353 687 354 688 355 0
c ret 356 357 689 358 690 359 360 361 362 363 0
c ret 364 365 691 366 285 367 368 369 692 370 0
c ret 693 371 372 373 694 695 374 375 376 377 0
c ret 378 379 380 381 382 696 697 383 384 385 0
c ret 386 387 698 388 389 390 391 392 393 394 0
c ret 395 396 699 397 398 399 700 400 701 401 0
c ret 402 702 403 404 703 405 406 286 407 408 0
c ret 409 410 411 412 413 414 415 416 417 418 0
c ret 419 420 421 422 423 424 425 426 427 428 0
c ret 429 430 431 432 433 434 435 436 437 438 0
c ret 439 440 441 442 443 444 445 446 447 448 0
c ret 449 450 451 452 453 454 455 456 457 458 0
c ret 459 460 461 462 463 464 465 466 467 468 0
c ret 469 470 471 472 473 474 475 476 477 287 0
c ret 478 479 480 481 482 483 484 485 486 487 0
c ret 488 489 490 491 492 493 494 495 496 497 0
c ret 498 499 500 501 502 503 504 505 506 507 0
c ret 508 509 510 511 512 513 514 515 516 288 0
c ret 517 518 519 520 521 522 523 524 525 526 0
c ret 527 528 529 530 531 532 533 534 535 536 0
c ret 537 538 539 540 541 542 543 544 545 546 0
c ret 547 548 549 550 551 552 553 554 555 556 0
c ret 557 558 559 560 561 562 563 564 565 566 0
c ret 567 568 569 570 571 572 573 574 575 576 0
c ret 577 578 579 580 581 582 583 584 585 586 0
c ret 587 0
2 4 5 -279 0
2 3 5 -279 0
-2 279 0
-2 -5 0
-2 -3 -4 0
3 515 0
3 -516 522 0
3 516 523 0
-3 -515 516 -523 0
-3 -515 -516 -522 0
4 515 0
4 -516 -522 0
4 516 -523 0
-4 -515 516 523 0
-4 -515 -516 522 0
5 6 -55 -98 -164 0
5 -6 55 -98 -164 0
-5 164 0
-5 6 55 0
-5 98 0
-5 -6 -55 0
6 -7 -10 0
6 -7 -53 0
6 -7 -51 0
-6 7 0
-6 10 51 53 0
7 8 -9 0
-7 -8 0
-7 9 0
-3 -4 8 0
3 -8 0
4 -8 0
9 -544 -573 -602 -631 0
-9 631 0
-9 544 0
-9 602 0
-9 573 0
10 38 -39 0
10 -11 14 -39 0
-10 39 0
-10 -14 -38 0
-10 11 -38 0
11 12 13 0
-11 -12 0
-11 -13 0
12 437 438 439 0
-12 -437 0
-12 -439 0
-12 -438 0
13 445 -447 0
-13 -445 0
-13 447 0
14 -15 683 0
14 15 16 0
-14 -15 -683 0
-14 15 -16 0
15 424 -426 0
-15 -424 0
-15 426 0
16 -17 -682 0
-16 682 0
-16 17 0
17 18 -22 0
-17 -18 0
-17 22 0
18 -19 -315 0
18 -21 -315 0
18 -20 -315 0
-18 315 0
-18 19 20 21 0
19 -316 317 318 0
-19 316 0
-19 -318 0
-19 -317 0
20 321 324 325 0
-20 -321 0
-20 -325 0
-20 -324 0
21 -321 322 323 0
-21 321 0
-21 -323 0
-21 -322 0
22 23 -30 0
22 23 33 -348 0
-22 -23 0
-22 30 -33 0
-22 30 348 0
23 -24 27 0
23 27 369 0
-23 -27 0
-23 24 -369 0
24 -26 372 375 0
24 -25 -26 372 0
-24 -372 0
-24 26 0
-24 25 -375 0
25 373 -374 0
-25 -373 0
-25 374 0
26 370 371 0
-26 -370 0
-26 -371 0
25 -26 27 28 -29 0
26 -27 0
-27 -28 0
-25 -27 0
-27 29 0
28 381 382 0
28 381 389 390 0
-28 -381 0
-28 -382 -389 0
-28 -382 -390 0
29 -369 372 375 -376 0
-29 376 0
-29 -375 0
-29 369 0
-29 -372 0
30 31 -341 0
30 32 -341 -347 0
-30 341 0
-30 -31 347 0
-30 -31 -32 0
31 342 343 344 0
-31 -342 0
-31 -344 0
-31 -343 0
32 345 -346 0
-32 -345 0
-32 346 0
33 34 36 0
-33 -34 0
-33 -36 0
34 -35 347 -353 0
-34 35 0
-34 353 0
-34 -347 0
-31 32 35 -341 -348 0
31 -35 0
-32 -35 0
-35 341 0
-35 348 0
-35 36 -37 -361 0
-35 36 -37 -362 0
-36 37 0
35 -36 0
-36 361 362 0
37 347 353 -354 0
-37 354 0
-37 -353 0
-37 -347 0
13 38 -283 0
38 -283 684 0
-38 283 0
-13 -38 -684 0
39 -40 50 0
-39 40 0
-39 -50 0
40 41 479 0
40 41 44 45 0
-40 -41 0
-40 -45 -479 0
-40 -44 -479 0
41 -42 -43 -468 0
41 -42 -43 -469 0
-41 43 0
-41 42 0
-41 468 469 0
42 471 472 473 474 0
-42 -474 0
-42 -473 0
-42 -471 0
-42 -472 0
43 -465 -466 -467 470 0
-43 467 0
-43 -470 0
-43 465 0
-43 466 0
44 482 -484 0
-44 -482 0
-44 484 0
45 -46 48 -486 0
45 -47 48 486 0
-45 -48 0
-45 46 -486 0
-45 47 486 0
46 -487 488 0
-46 487 0
-46 -488 0
47 510 -512 0
-47 -510 0
-47 512 0
-46 48 49 -479 -486 0
46 -48 0
-48 -49 0
-48 479 0
-48 486 0
49 490 -491 -492 493 0
-49 -490 0
-49 -493 0
-49 492 0
-49 491 0
-14 50 283 -458 0
16 50 283 458 0
-50 -283 0
14 -50 -458 0
-16 -50 458 0
-47 51 -52 -686 0
-51 686 0
47 -51 0
-51 52 0
52 -479 486 0
-52 479 0
-52 -486 0
-44 53 -54 -685 0
-53 685 0
44 -53 0
-53 54 0
45 54 -479 0
-54 479 0
-45 -54 0
55 -56 -93 0
55 -93 900 0
-55 93 0
-55 56 -900 0
56 57 60 0
56 -57 962 0
56 57 -59 0
-56 -57 -962 0
-56 57 59 -60 0
57 -58 907 0
-57 -907 0
-57 58 0
58 931 -933 0
-58 -931 0
-58 933 0
59 -907 -908 909 0
-59 907 0
-59 908 0
-59 -909 0
60 -61 -961 0
60 61 62 -65 0
-60 61 65 0
-60 -61 961 0
-60 61 -62 0
61 903 -905 0
-61 -903 0
-61 905 0
62 -63 -64 -889 0
62 -63 -64 -890 0
-62 64 0
-62 63 0
-62 889 890 0
63 892 893 894 895 0
-63 -895 0
-63 -894 0
-63 -892 0
-63 -893 0
64 -886 -887 -888 891 0
-64 888 0
-64 -891 0
-64 886 0
-64 887 0
65 91 92 0
65 -66 69 92 0
-65 -92 0
-65 -69 -91 0
-65 66 -91 0
66 67 68 0
-66 -67 0
-66 -68 0
67 866 -868 0
-67 -866 0
-67 868 0
68 858 859 860 0
-68 -858 0
-68 -860 0
-68 -859 0
69 -70 959 0
69 70 71 0
-69 -70 -959 0
-69 70 -71 0
70 845 -847 0
-70 -845 0
-70 847 0
71 -72 -958 0
-71 958 0
-71 72 0
72 -73 87 0
-72 73 0
-72 -87 0
73 -80 81 0
73 74 81 -769 0
-73 -81 0
-73 -74 80 0
-73 80 769 0
74 75 0
74 78 -768 0
74 78 774 0
-74 -75 -78 0
-74 -75 768 -774 0
75 -76 77 -762 -769 0
-75 76 0
-75 -77 0
-75 762 0
-75 769 0
76 763 764 765 0
-76 -763 0
-76 -765 0
-76 -764 0
77 766 -767 0
-77 -766 0
-77 767 0
78 79 768 774 -775 0
-78 -768 0
-78 -79 0
-78 775 0
-78 -774 0
79 782 783 0
-79 -782 0
-79 -783 0
76 80 -762 0
77 80 -762 -768 0
-80 762 0
-76 -80 768 0
-76 -77 -80 0
81 83 86 0
81 83 -85 0
81 82 83 0
-81 -83 0
-81 -82 85 -86 0
82 791 792 793 0
-82 -791 0
-82 -793 0
-82 -792 0
82 83 -790 0
83 84 -790 -796 0
-83 790 0
-82 -83 796 0
-82 -83 -84 0
84 794 -795 0
-84 -794 0
-84 795 0
85 802 803 0
85 802 810 811 0
-85 -802 0
-85 -803 -810 0
-85 -803 -811 0
84 86 -790 796 -797 0
-86 797 0
-84 -86 0
-86 790 0
-86 -796 0
87 -88 -736 0
87 -90 -736 0
87 -89 -736 0
-87 736 0
-87 88 89 90 0
88 -737 738 739 0
-88 737 0
-88 -739 0
-88 -738 0
89 742 745 746 0
-89 -742 0
-89 -746 0
-89 -745 0
90 -742 743 744 0
-90 742 0
-90 -744 0
-90 -743 0
67 91 -704 0
91 -704 960 0
-91 704 0
-67 -91 -960 0
-69 92 704 -879 0
71 92 704 879 0
-92 -704 0
69 -92 -879 0
-71 -92 879 0
60 93 94 0
65 93 95 0
93 94 95 0
60 65 93 0
-65 -93 -94 0
-60 -93 -95 0
62 94 900 0
-94 -900 0
-62 -94 0
95 96 -97 0
-95 -96 0
-95 97 0
96 911 -912 -913 914 0
-96 -911 0
-96 -914 0
-96 913 0
-96 912 0
97 -900 -907 -908 909 0
-97 908 0
-97 -909 0
-97 900 0
-97 907 0
98 99 -109 -121 0
98 -99 109 -121 0
-98 121 0
-98 99 109 0
-98 -99 -109 0
99 100 108 900 0
99 -106 108 -900 0
-99 -108 0
-99 -100 900 0
-99 106 -900 0
62 100 101 105 0
62 100 101 -104 0
-62 -100 0
-100 -101 0
-100 104 -105 0
101 -103 704 -879 0
101 102 704 879 0
-101 -704 0
-101 103 -879 0
-101 -102 879 0
-72 102 -708 0
-102 708 0
72 -102 0
-70 103 963 0
70 102 103 0
-70 -103 -963 0
70 -102 -103 0
-66 103 104 0
66 -104 0
-103 -104 0
67 105 -704 0
105 -704 964 0
-105 704 0
-67 -105 -964 0
57 106 107 0
-57 106 966 0
57 -59 106 0
-57 -106 -966 0
57 59 -106 -107 0
-61 107 -965 0
61 -100 107 0
-61 -107 965 0
61 100 -107 0
-95 -107 108 0
95 -108 0
107 -108 0
8 -9 109 110 119 0
9 -109 0
-109 -119 0
-8 -109 0
-109 -110 0
110 -112 113 0
44 110 111 113 0
-110 -113 0
-110 -111 112 0
-44 -110 112 0
-47 111 486 -690 0
47 -111 0
-111 690 0
-111 -486 0
44 112 479 0
112 479 689 0
48 112 479 0
-112 -479 0
-44 -48 -112 -689 0
41 113 114 118 0
41 113 114 -117 0
-41 -113 0
-113 -114 0
-113 117 -118 0
114 -116 283 -458 0
114 115 283 458 0
-114 -283 0
-114 116 -458 0
-114 -115 458 0
-17 115 -287 0
-115 287 0
17 -115 0
-15 116 687 0
15 115 116 0
-15 -116 -687 0
15 -115 -116 0
-11 116 117 0
11 -117 0
-116 -117 0
13 118 -283 0
118 -283 688 0
-118 283 0
-13 -118 -688 0
-45 119 -120 0
-44 119 -120 689 0
-119 120 0
45 -119 -689 0
44 45 -119 0
111 120 -479 0
-120 479 0
-111 -120 0
121 -122 -146 155 0
121 -135 146 -155 0
121 -122 146 -155 0
121 -135 -146 155 0
-121 146 155 0
-121 -146 -155 0
-121 122 135 0
122 129 132 -900 0
122 123 129 132 0
-122 -132 0
-122 -129 0
-122 -123 900 0
62 123 124 128 0
62 123 124 -127 0
-62 -123 0
-123 -124 0
-123 127 -128 0
124 125 -704 946 0
67 124 125 -704 0
-124 704 0
-124 -125 0
-67 -124 -946 0
-66 125 126 0
66 -125 0
-125 -126 0
70 72 126 0
-70 126 945 0
70 126 709 0
-70 -126 -945 0
70 -72 -126 -709 0
70 -72 127 -709 0
-72 127 -709 879 0
72 -127 0
-127 709 0
-70 -127 -879 0
128 704 945 0
128 704 879 0
70 128 704 0
-128 -704 0
-70 -128 -879 -945 0
-58 129 -131 -948 0
58 129 -130 -131 0
-129 131 0
-58 -129 948 0
58 -129 130 0
-61 130 -947 0
61 -123 130 0
-61 -130 947 0
61 123 -130 0
131 -900 907 0
-131 900 0
-131 -907 0
-130 132 -133 0
130 -132 0
-132 133 0
96 133 -900 -907 0
133 134 -900 -907 0
-133 900 0
-133 907 0
-96 -133 -134 0
134 -908 909 0
-134 908 0
-134 -909 0
-7 135 -136 0
-7 135 144 0
7 -135 0
-135 136 -144 0
47 -52 136 -137 0
-47 -52 136 -672 0
52 -136 0
47 -136 137 0
-47 -136 672 0
-44 137 -671 0
44 137 -138 0
-44 -137 671 0
44 -137 138 0
41 138 139 143 0
41 138 139 -142 0
-41 -138 0
-138 -139 0
-138 142 -143 0
139 140 -283 670 0
13 139 140 -283 0
-139 283 0
-139 -140 0
-13 -139 -670 0
-11 140 141 0
11 -140 0
-140 -141 0
15 17 141 0
-15 141 669 0
15 141 288 0
-15 -141 -669 0
15 -17 -141 -288 0
15 -17 142 -288 0
-17 142 -288 458 0
17 -142 0
-142 288 0
-15 -142 -458 0
143 283 669 0
143 283 458 0
15 143 283 0
-143 -283 0
-15 -143 -458 -669 0
144 145 -479 0
137 138 144 0
138 144 145 0
137 144 -479 0
-138 -144 479 0
-137 -144 -145 0
49 145 -479 -486 0
46 145 -479 -486 0
-145 479 0
-145 486 0
-46 -49 -145 0
146 152 154 -900 0
146 147 152 154 0
-146 -154 0
-146 -152 0
-146 -147 900 0
62 147 148 151 0
62 147 148 -150 0
-62 -147 0
-147 -148 0
-147 150 -151 0
148 -149 704 -879 0
72 148 704 879 0
-148 -704 0
-148 149 -879 0
-72 -148 879 0
-70 149 949 0
70 72 149 0
-70 -149 -949 0
70 -72 -149 0
-66 149 150 0
66 -150 0
-149 -150 0
67 151 -704 0
151 -704 950 0
-151 704 0
-67 -151 -950 0
58 -131 152 -153 0
-58 -131 152 -952 0
131 -152 0
58 -152 153 0
-58 -152 952 0
-61 153 -951 0
61 -147 153 0
-61 -153 951 0
61 147 -153 0
-133 -153 154 0
133 -154 0
153 -154 0
-7 155 -156 0
-7 155 163 0
7 -155 0
-155 156 -163 0
47 -52 156 -157 0
-47 -52 156 -676 0
52 -156 0
47 -156 157 0
-47 -156 676 0
-44 157 -675 0
44 157 -158 0
-44 -157 675 0
44 -157 158 0
41 158 159 162 0
41 158 159 -161 0
-41 -158 0
-158 -159 0
-158 161 -162 0
159 -160 283 -458 0
17 159 283 458 0
-159 -283 0
-159 160 -458 0
-17 -159 458 0
-15 160 673 0
15 17 160 0
-15 -160 -673 0
15 -17 -160 0
-11 160 161 0
11 -161 0
-160 -161 0
13 162 -283 0
162 -283 674 0
-162 283 0
-13 -162 -674 0
157 163 -479 0
145 158 163 0
157 158 163 0
145 163 -479 0
-145 -157 -163 0
-158 -163 479 0
164 -165 -183 -224 0
164 -174 -183 -224 0
-164 224 0
-164 183 0
-164 165 174 0
-7 165 -166 0
-7 165 -173 0
-7 165 -172 0
7 -165 0
-165 166 172 173 0
166 169 -170 0
-11 166 167 -170 0
-166 170 0
-166 -167 -169 0
11 -166 -169 0
-15 167 692 0
15 167 168 0
-15 -167 -692 0
15 -167 -168 0
-17 168 -691 0
-168 691 0
17 -168 0
13 169 -283 0
169 -283 693 0
-169 283 0
-13 -169 -693 0
-40 170 171 0
40 -170 0
-170 -171 0
-167 171 283 -458 0
168 171 283 458 0
-171 -283 0
167 -171 -458 0
-168 -171 458 0
-47 -52 172 -695 0
-172 695 0
47 -172 0
52 -172 0
-44 -54 173 -694 0
-173 694 0
44 -173 0
54 -173 0
174 -175 -182 0
174 -182 900 0
-174 182 0
-174 175 -900 0
57 175 176 0
-57 175 971 0
57 -59 175 0
-57 -175 -971 0
57 59 -175 -176 0
-61 176 -970 0
61 62 176 -177 0
61 -176 177 0
-61 -176 970 0
61 -62 -176 0
177 180 181 0
-66 177 178 180 0
-177 -180 0
66 -177 -181 0
-177 -178 -181 0
-70 178 968 0
70 178 179 0
-70 -178 -968 0
70 -178 -179 0
-72 179 -967 0
-179 967 0
72 -179 0
-178 180 704 -879 0
179 180 704 879 0
-180 -704 0
178 -180 -879 0
-179 -180 879 0
67 181 -704 0
181 -704 969 0
-181 704 0
-67 -181 -969 0
95 177 182 0
94 176 182 0
176 177 182 0
94 95 182 0
-94 -177 -182 0
-95 -176 -182 0
183 194 204 0
183 184 214 0
183 194 214 0
183 184 204 0
-183 -184 -194 0
-183 -204 -214 0
184 191 193 -900 0
184 185 191 193 0
-184 -193 0
-184 -191 0
-184 -185 900 0
62 185 186 190 0
62 185 186 -189 0
-62 -185 0
-185 -186 0
-185 189 -190 0
186 -188 704 -879 0
186 187 704 879 0
-186 -704 0
-186 188 -879 0
-186 -187 879 0
-72 187 -975 0
-187 975 0
72 -187 0
-70 188 976 0
70 187 188 0
-70 -188 -976 0
70 -187 -188 0
-66 188 189 0
66 -189 0
-188 -189 0
67 190 -704 0
190 -704 977 0
-190 704 0
-67 -190 -977 0
58 -131 191 -192 0
-58 -131 191 -979 0
131 -191 0
58 -191 192 0
-58 -191 979 0
-61 192 -978 0
61 -185 192 0
-61 -192 978 0
61 185 -192 0
-133 -192 193 0
133 -193 0
192 -193 0
-7 194 -195 0
-7 194 203 0
7 -194 0
-194 195 -203 0
47 -52 195 -196 0
-47 -52 195 -703 0
52 -195 0
47 -195 196 0
-47 -195 703 0
-44 196 -702 0
44 196 -197 0
-44 -196 702 0
44 -196 197 0
41 197 198 202 0
41 197 198 -201 0
-41 -197 0
-197 -198 0
-197 201 -202 0
198 -200 283 -458 0
198 199 283 458 0
-198 -283 0
-198 200 -458 0
-198 -199 458 0
-17 199 -699 0
-199 699 0
17 -199 0
-15 200 700 0
15 199 200 0
-15 -200 -700 0
15 -199 -200 0
-11 200 201 0
11 -201 0
-200 -201 0
13 202 -283 0
202 -283 701 0
-202 283 0
-13 -202 -701 0
196 203 -479 0
145 197 203 0
196 197 203 0
145 203 -479 0
-145 -196 -203 0
-197 -203 479 0
204 211 213 -900 0
204 205 211 213 0
-204 -213 0
-204 -211 0
-204 -205 900 0
62 205 206 210 0
62 205 206 -209 0
-62 -205 0
-205 -206 0
-205 209 -210 0
206 -208 704 -879 0
206 207 704 879 0
-206 -704 0
-206 208 -879 0
-206 -207 879 0
-72 207 -953 0
-207 953 0
72 -207 0
-70 208 954 0
70 207 208 0
-70 -208 -954 0
70 -207 -208 0
-66 208 209 0
66 -209 0
-208 -209 0
67 210 -704 0
210 -704 955 0
-210 704 0
-67 -210 -955 0
58 -131 211 -212 0
-58 -131 211 -957 0
131 -211 0
58 -211 212 0
-58 -211 957 0
-61 212 -956 0
61 -205 212 0
-61 -212 956 0
61 205 -212 0
-133 -212 213 0
133 -213 0
212 -213 0
-7 214 -215 0
-7 214 223 0
7 -214 0
-214 215 -223 0
47 -52 215 -216 0
-47 -52 215 -681 0
52 -215 0
47 -215 216 0
-47 -215 681 0
-44 216 -680 0
44 216 -217 0
-44 -216 680 0
44 -216 217 0
41 217 218 222 0
41 217 218 -221 0
-41 -217 0
-217 -218 0
-217 221 -222 0
218 -220 283 -458 0
218 219 283 458 0
-218 -283 0
-218 220 -458 0
-218 -219 458 0
-17 219 -677 0
-219 677 0
17 -219 0
-15 220 678 0
15 219 220 0
-15 -220 -678 0
15 -219 -220 0
-11 220 221 0
11 -221 0
-220 -221 0
13 222 -283 0
222 -283 679 0
-222 283 0
-13 -222 -679 0
216 223 -479 0
145 217 223 0
216 217 223 0
145 223 -479 0
-145 -216 -223 0
-217 -223 479 0
165 224 -225 -278 0
174 224 -225 -278 0
-224 278 0
-224 225 0
-165 -174 -224 0
225 226 227 238 -255 0
225 226 -227 -238 -255 0
-225 255 0
-225 -227 238 0
-225 -226 0
-225 227 -238 0
-122 -135 226 0
122 -226 0
135 -226 0
227 -228 229 0
-227 228 0
-227 -229 0
62 97 228 0
62 96 228 0
-62 -228 0
-96 -97 -228 0
229 230 -232 0
229 236 237 0
229 -232 236 0
-229 232 -237 0
-229 -230 -236 0
-229 232 -236 0
230 -231 879 880 883 0
-230 231 0
-230 -883 0
-230 -879 0
-230 -880 0
231 881 882 0
-231 -881 0
-231 -882 0
232 233 -823 0
-73 232 -235 823 0
-232 -233 -823 0
73 -232 823 0
-232 235 823 0
-73 233 -234 0
73 -233 0
-233 234 0
234 -936 -938 0
87 234 936 0
234 -936 -942 0
-87 -234 936 0
-234 -936 938 942 0
235 -936 938 944 0
-235 936 0
-235 -944 0
-235 -938 0
230 236 704 0
-233 236 704 0
-236 -704 0
-230 233 -236 0
68 237 -704 0
-237 704 0
-68 -237 0
238 -243 283 0
12 238 239 -243 0
-238 243 0
-238 -239 -283 0
-12 -238 -283 0
239 240 -402 0
-22 239 -242 402 0
-239 -240 -402 0
22 -239 402 0
-239 242 402 0
-22 240 -241 0
22 -240 0
-240 241 0
241 -660 -662 0
18 241 660 0
241 -660 -666 0
-18 -241 660 0
-241 -660 662 666 0
242 -660 662 668 0
-242 660 0
-242 -668 0
-242 -662 0
239 243 245 -249 0
243 -244 245 -249 0
-243 249 0
-243 -245 0
-239 -243 244 0
244 458 459 0
-244 -458 0
-244 -459 0
-239 245 246 0
240 245 -247 0
-239 240 245 0
245 246 -247 0
239 -245 247 0
-240 -245 -246 0
246 460 461 462 0
-246 -460 0
-246 -462 0
-246 -461 0
247 -248 283 0
-247 -283 0
-247 248 0
-246 248 458 459 0
246 -248 0
-248 -459 0
-248 -458 0
-9 249 250 -253 0
9 -249 0
-249 -250 0
-249 253 0
-3 250 252 515 0
-3 250 -251 252 0
3 -250 0
-250 -252 0
-250 251 -515 0
-4 251 0
251 -524 530 0
251 524 531 0
4 -251 -524 -530 0
4 -251 524 -531 0
4 252 -524 530 0
4 252 524 531 0
-4 -252 0
-252 524 -531 0
-252 -524 -530 0
41 49 253 0
41 253 254 0
41 253 479 0
-41 -253 0
-49 -253 -254 -479 0
-46 254 -486 0
-254 486 0
46 -254 0
255 -256 -262 -268 0
255 256 262 -268 0
-255 268 0
-255 -256 262 0
-255 256 -262 0
-249 256 257 283 0
-249 256 257 -261 0
249 -256 0
-256 -257 0
-256 261 -283 0
248 257 260 0
257 258 260 0
-248 257 258 283 0
-248 -257 -258 0
248 -257 -260 0
-257 -260 -283 0
-22 258 -660 0
18 -22 258 259 0
22 -258 0
-258 -259 660 0
-18 -258 660 0
259 294 697 0
-259 -294 0
-259 -697 0
260 402 -698 0
-258 260 -402 0
258 -260 -402 0
-260 402 698 0
12 -260 261 0
-12 -261 0
260 -261 0
262 -266 704 0
68 262 -263 -266 0
-262 266 0
-262 263 -704 0
-68 -262 -704 0
263 823 -974 0
263 -264 -823 0
-263 264 -823 0
-263 823 974 0
-73 264 -936 0
-73 87 264 265 0
73 -264 0
-264 -265 936 0
-87 -264 936 0
265 715 973 0
-265 -715 0
-265 -973 0
-228 266 267 0
228 -266 0
-266 -267 0
230 263 267 0
263 264 267 0
-230 264 267 704 0
-230 -264 -267 0
230 -263 -267 0
-263 -267 -704 0
268 269 272 -275 -277 0
268 -269 -272 -275 -277 0
-268 277 0
-268 -269 272 0
-268 275 0
-268 269 -272 0
-22 -249 269 -270 271 0
249 -269 0
-269 -271 0
22 -269 0
-269 270 0
270 -660 662 0
-270 660 0
-270 -662 0
-12 271 -283 0
-271 283 0
12 -271 0
-73 -228 272 -273 274 0
-272 273 0
-272 -274 0
73 -272 0
228 -272 0
273 -936 938 0
-273 936 0
-273 -938 0
-68 274 -704 0
-274 704 0
68 -274 0
87 -228 274 275 -276 0
228 -275 0
-274 -275 0
-87 -275 0
-275 276 0
276 -707 -708 0
276 -706 709 0
276 -706 -708 0
276 -707 709 0
-276 708 -709 0
-276 706 707 0
-80 81 277 0
74 81 277 0
-81 -277 0
-74 80 -277 0
-194 -204 278 0
-184 -214 278 0
-184 -204 278 0
-194 -214 278 0
204 214 -278 0
184 194 -278 0
18 -253 279 280 -281 0
253 -279 0
-279 -280 0
-18 -279 0
-279 281 0
30 34 36 280 0
-30 -280 0
-36 -280 0
-34 -280 0
-9 23 271 281 -282 0
-281 282 0
-271 -281 0
9 -281 0
-23 -281 0
282 -286 -287 0
282 -285 288 0
282 -285 -287 0
282 -286 288 0
-282 287 -288 0
-282 285 286 0
1 2 0
-1 -2 0
980 0

